computational_data/solutions/P60.sol
Optimal - objective value 31.00000000
      0 r_0                         1                       1
      3 r_3                         1                       1
      7 r_7                         1                       1
     11 r_11                        1                       1
     15 r_15                        1                       1
     19 r_19                        1                       1
     23 r_23                        1                       1
     27 r_27                        1                       1
     31 r_31                        1                       1
     35 r_35                        1                       1
     39 r_39                        1                       1
     43 r_43                        1                       1
     47 r_47                        1                       1
     51 r_51                        1                       1
     55 r_55                        1                       1
     59 r_59                        1                       1
     62 b_2                         1                       1
     65 b_5                         1                       1
     69 b_9                         1                       1
     73 b_13                        1                       1
     77 b_17                        1                       1
     81 b_21                        1                       1
     85 b_25                        1                       1
     89 b_29                        1                       1
     93 b_33                        1                       1
     97 b_37                        1                       1
    101 b_41                        1                       1
    105 b_45                        1                       1
    109 b_49                        1                       1
    113 b_53                        1                       1
    117 b_57                        1                       1
